(set-info :Origin "This instance was generated by: BanditFuzz-- an RL fuzzer for SMT solvers" )
(set-info :Author "Joe Scott, Fed Mora, Vijay Ganesh" )
(set-info :Contact "Joe Scott, joseph.scott@uwaterloo.ca")
(set-logic QF_BV)
(declare-const bool_0 Bool)
(declare-const bool_1 Bool)
(declare-const bool_2 Bool)
(declare-const bool_3 Bool)
(declare-const bool_4 Bool)
(declare-const bv_0 (_ BitVec 32))
(declare-const bv_1 (_ BitVec 32))
(declare-const bv_2 (_ BitVec 32))
(declare-const bv_3 (_ BitVec 32))
(declare-const bv_4 (_ BitVec 32))
(assert (not (bvslt (bvnand bv_1 bv_2) (bvxnor bv_2 bv_4))))
(assert (bvule (bvadd (bvxnor #x344244ef  #xd0b8fea2 ) (bvmul #xb0328424  #xcda66c3c )) (bvshl (bvand #x76400e82  bv_2) (bvurem #xe278aed3  #x0c3841ef ))))
(assert (bvule (bvashr (bvor #xee2e3581  bv_0) (bvudiv #x4e65e38d  bv_1)) (bvsub (bvxor bv_4 #x8d85316b ) (bvxnor #xed4d5752  bv_1))))
(assert (not (bvsgt (bvnand #x6e9911d5  bv_1) (bvxnor #x0de7b5b6  bv_4))))
(assert (bvsle (bvudiv (bvsmod bv_3 #xde010c37 ) (bvnand bv_1 bv_4)) (bvashr (bvsmod #xf12d9a29  bv_1) (bvlshr bv_4 bv_4))))
(check-sat)
(exit)
